NAME 
OBJSENSE MAX
ROWS
 N  OBJ
 L  packing[0]
 L  packing[1]
 L  packing[2]
 L  packing[3]
 L  packing[4]
 L  packing[5]
 L  packing[6]
 L  packing[7]
 L  packing[8]
 L  packing[9]
 L  packing[10]
 L  packing[11]
 L  packing[12]
 L  packing[13]
 L  packing[14]
 L  packing[15]
 L  packing[16]
 L  packing[17]
 L  packing[18]
 L  packing[19]
 L  packing[20]
 L  packing[21]
 L  packing[22]
 L  packing[23]
 L  packing[24]
 L  packing[25]
 L  packing[26]
 L  packing[27]
 L  packing[28]
 L  packing[29]
 L  packing[30]
 L  packing[31]
 L  packing[32]
 L  packing[33]
 L  packing[34]
 L  packing[35]
 L  packing[36]
 L  packing[37]
 L  packing[38]
 L  packing[39]
 L  packing[40]
 L  packing[41]
 L  packing[42]
 L  packing[43]
 L  packing[44]
 L  packing[45]
 L  packing[46]
 L  packing[47]
 L  packing[48]
 L  packing[49]
 L  R55     
COLUMNS
    MARKER    'MARKER'                 'INTORG'
    x[1]      OBJ       76
    x[1]      packing[0]  135
    x[1]      packing[2]  112
    x[1]      packing[4]  193
    x[1]      packing[5]  81
    x[1]      packing[6]  92
    x[1]      packing[7]  164
    x[1]      packing[8]  171
    x[1]      packing[9]  36
    x[1]      packing[10]  140
    x[1]      packing[11]  144
    x[1]      packing[12]  62
    x[1]      packing[13]  106
    x[1]      packing[15]  151
    x[1]      packing[16]  192
    x[1]      packing[17]  93
    x[1]      packing[19]  198
    x[1]      packing[21]  39
    x[1]      packing[23]  180
    x[1]      packing[24]  17
    x[1]      packing[25]  65
    x[1]      packing[26]  130
    x[1]      packing[27]  70
    x[1]      packing[28]  82
    x[1]      packing[29]  46
    x[1]      packing[31]  157
    x[1]      packing[32]  79
    x[1]      packing[33]  74
    x[1]      packing[34]  18
    x[1]      packing[35]  115
    x[1]      packing[36]  162
    x[1]      packing[38]  142
    x[1]      packing[39]  58
    x[1]      packing[40]  85
    x[1]      packing[41]  17
    x[1]      packing[44]  71
    x[1]      packing[45]  127
    x[1]      packing[46]  69
    x[1]      packing[47]  65
    x[1]      packing[48]  124
    x[2]      OBJ       68
    x[2]      packing[0]  129
    x[2]      packing[1]  97
    x[2]      packing[3]  149
    x[2]      packing[6]  181
    x[2]      packing[7]  7
    x[2]      packing[8]  8
    x[2]      packing[9]  77
    x[2]      packing[11]  39
    x[2]      packing[12]  35
    x[2]      packing[13]  63
    x[2]      packing[14]  154
    x[2]      packing[15]  150
    x[2]      packing[16]  22
    x[2]      packing[18]  80
    x[2]      packing[19]  167
    x[2]      packing[20]  193
    x[2]      packing[21]  89
    x[2]      packing[22]  67
    x[2]      packing[23]  80
    x[2]      packing[24]  130
    x[2]      packing[26]  189
    x[2]      packing[27]  171
    x[2]      packing[29]  32
    x[2]      packing[30]  56
    x[2]      packing[31]  134
    x[2]      packing[34]  111
    x[2]      packing[36]  37
    x[2]      packing[38]  76
    x[2]      packing[39]  156
    x[2]      packing[40]  139
    x[2]      packing[41]  79
    x[2]      packing[42]  75
    x[2]      packing[43]  41
    x[2]      packing[44]  59
    x[2]      packing[45]  171
    x[2]      packing[46]  104
    x[2]      packing[48]  174
    x[2]      packing[49]  121
    x[3]      OBJ       22
    x[3]      packing[0]  44
    x[3]      packing[1]  28
    x[3]      packing[2]  75
    x[3]      packing[5]  181
    x[3]      packing[6]  60
    x[3]      packing[7]  41
    x[3]      packing[8]  116
    x[3]      packing[11]  36
    x[3]      packing[12]  63
    x[3]      packing[13]  81
    x[3]      packing[14]  90
    x[3]      packing[15]  66
    x[3]      packing[16]  162
    x[3]      packing[21]  53
    x[3]      packing[23]  191
    x[3]      packing[24]  110
    x[3]      packing[26]  67
    x[3]      packing[28]  20
    x[3]      packing[30]  164
    x[3]      packing[31]  173
    x[3]      packing[32]  41
    x[3]      packing[33]  55
    x[3]      packing[34]  168
    x[3]      packing[35]  61
    x[3]      packing[36]  62
    x[3]      packing[37]  27
    x[3]      packing[38]  130
    x[3]      packing[40]  109
    x[3]      packing[41]  180
    x[3]      packing[43]  142
    x[3]      packing[44]  12
    x[3]      packing[47]  156
    x[3]      packing[49]  61
    x[4]      OBJ       135
    x[4]      packing[0]  3
    x[4]      packing[1]  47
    x[4]      packing[2]  121
    x[4]      packing[3]  118
    x[4]      packing[4]  115
    x[4]      packing[6]  3
    x[4]      packing[7]  18
    x[4]      packing[8]  176
    x[4]      packing[9]  187
    x[4]      packing[10]  192
    x[4]      packing[11]  29
    x[4]      packing[13]  129
    x[4]      packing[15]  190
    x[4]      packing[20]  169
    x[4]      packing[21]  43
    x[4]      packing[22]  30
    x[4]      packing[23]  4
    x[4]      packing[24]  142
    x[4]      packing[25]  82
    x[4]      packing[26]  49
    x[4]      packing[28]  79
    x[4]      packing[29]  132
    x[4]      packing[30]  104
    x[4]      packing[31]  187
    x[4]      packing[32]  97
    x[4]      packing[34]  192
    x[4]      packing[35]  188
    x[4]      packing[37]  11
    x[4]      packing[38]  99
    x[4]      packing[39]  168
    x[4]      packing[40]  196
    x[4]      packing[41]  165
    x[4]      packing[43]  71
    x[4]      packing[45]  146
    x[4]      packing[49]  191
    x[4]      R55       1
    x[5]      OBJ       80
    x[5]      packing[0]  132
    x[5]      packing[1]  41
    x[5]      packing[5]  44
    x[5]      packing[7]  180
    x[5]      packing[8]  34
    x[5]      packing[9]  13
    x[5]      packing[11]  13
    x[5]      packing[13]  29
    x[5]      packing[14]  117
    x[5]      packing[15]  86
    x[5]      packing[17]  166
    x[5]      packing[18]  27
    x[5]      packing[19]  23
    x[5]      packing[22]  150
    x[5]      packing[23]  44
    x[5]      packing[25]  190
    x[5]      packing[27]  43
    x[5]      packing[28]  104
    x[5]      packing[29]  130
    x[5]      packing[30]  175
    x[5]      packing[31]  109
    x[5]      packing[32]  125
    x[5]      packing[34]  134
    x[5]      packing[35]  108
    x[5]      packing[36]  74
    x[5]      packing[37]  112
    x[5]      packing[38]  48
    x[5]      packing[39]  168
    x[5]      packing[40]  85
    x[5]      packing[43]  19
    x[5]      packing[44]  47
    x[5]      packing[46]  54
    x[5]      packing[48]  124
    x[5]      packing[49]  173
    x[5]      R55       1
    x[6]      OBJ       72
    x[6]      packing[0]  4
    x[6]      packing[1]  2
    x[6]      packing[2]  98
    x[6]      packing[3]  10
    x[6]      packing[5]  163
    x[6]      packing[6]  9
    x[6]      packing[9]  47
    x[6]      packing[10]  17
    x[6]      packing[11]  15
    x[6]      packing[13]  138
    x[6]      packing[14]  78
    x[6]      packing[15]  73
    x[6]      packing[16]  37
    x[6]      packing[19]  11
    x[6]      packing[20]  106
    x[6]      packing[22]  160
    x[6]      packing[25]  28
    x[6]      packing[26]  177
    x[6]      packing[27]  10
    x[6]      packing[28]  62
    x[6]      packing[30]  58
    x[6]      packing[31]  57
    x[6]      packing[33]  87
    x[6]      packing[34]  49
    x[6]      packing[35]  136
    x[6]      packing[36]  151
    x[6]      packing[38]  100
    x[6]      packing[39]  190
    x[6]      packing[40]  129
    x[6]      packing[41]  73
    x[6]      packing[42]  62
    x[6]      packing[43]  172
    x[6]      packing[44]  75
    x[6]      packing[45]  161
    x[6]      packing[46]  152
    x[6]      packing[47]  156
    x[6]      packing[48]  153
    x[6]      packing[49]  165
    x[7]      OBJ       7
    x[7]      packing[0]  81
    x[7]      packing[1]  119
    x[7]      packing[2]  31
    x[7]      packing[3]  106
    x[7]      packing[6]  88
    x[7]      packing[7]  65
    x[7]      packing[8]  59
    x[7]      packing[9]  74
    x[7]      packing[10]  66
    x[7]      packing[11]  4
    x[7]      packing[13]  53
    x[7]      packing[15]  148
    x[7]      packing[16]  64
    x[7]      packing[17]  80
    x[7]      packing[18]  67
    x[7]      packing[19]  124
    x[7]      packing[20]  74
    x[7]      packing[21]  59
    x[7]      packing[22]  55
    x[7]      packing[23]  93
    x[7]      packing[24]  157
    x[7]      packing[25]  176
    x[7]      packing[27]  194
    x[7]      packing[28]  64
    x[7]      packing[29]  50
    x[7]      packing[30]  70
    x[7]      packing[31]  145
    x[7]      packing[32]  145
    x[7]      packing[33]  63
    x[7]      packing[34]  82
    x[7]      packing[35]  80
    x[7]      packing[37]  107
    x[7]      packing[40]  133
    x[7]      packing[41]  122
    x[7]      packing[42]  15
    x[7]      packing[43]  64
    x[7]      packing[44]  141
    x[7]      packing[45]  33
    x[7]      packing[47]  33
    x[7]      packing[48]  96
    x[7]      packing[49]  60
    x[8]      OBJ       30
    x[8]      packing[0]  22
    x[8]      packing[1]  48
    x[8]      packing[3]  112
    x[8]      packing[4]  25
    x[8]      packing[5]  42
    x[8]      packing[6]  195
    x[8]      packing[7]  25
    x[8]      packing[9]  26
    x[8]      packing[10]  25
    x[8]      packing[11]  20
    x[8]      packing[12]  93
    x[8]      packing[15]  183
    x[8]      packing[17]  123
    x[8]      packing[18]  30
    x[8]      packing[19]  6
    x[8]      packing[20]  50
    x[8]      packing[21]  13
    x[8]      packing[22]  53
    x[8]      packing[23]  77
    x[8]      packing[24]  165
    x[8]      packing[26]  190
    x[8]      packing[28]  61
    x[8]      packing[30]  196
    x[8]      packing[31]  173
    x[8]      packing[32]  198
    x[8]      packing[33]  168
    x[8]      packing[34]  178
    x[8]      packing[35]  63
    x[8]      packing[36]  68
    x[8]      packing[37]  115
    x[8]      packing[38]  162
    x[8]      packing[39]  145
    x[8]      packing[40]  33
    x[8]      packing[41]  182
    x[8]      packing[43]  79
    x[8]      packing[44]  59
    x[8]      packing[46]  144
    x[8]      packing[47]  106
    x[8]      packing[49]  192
    x[9]      OBJ       181
    x[9]      packing[1]  155
    x[9]      packing[2]  112
    x[9]      packing[3]  53
    x[9]      packing[4]  141
    x[9]      packing[5]  85
    x[9]      packing[6]  12
    x[9]      packing[8]  90
    x[9]      packing[9]  27
    x[9]      packing[12]  117
    x[9]      packing[13]  5
    x[9]      packing[14]  125
    x[9]      packing[15]  62
    x[9]      packing[16]  151
    x[9]      packing[18]  85
    x[9]      packing[19]  180
    x[9]      packing[20]  147
    x[9]      packing[21]  136
    x[9]      packing[22]  41
    x[9]      packing[24]  93
    x[9]      packing[25]  127
    x[9]      packing[26]  89
    x[9]      packing[27]  20
    x[9]      packing[29]  130
    x[9]      packing[30]  89
    x[9]      packing[31]  61
    x[9]      packing[32]  175
    x[9]      packing[33]  112
    x[9]      packing[34]  133
    x[9]      packing[36]  153
    x[9]      packing[39]  39
    x[9]      packing[40]  130
    x[9]      packing[41]  172
    x[9]      packing[42]  1
    x[9]      packing[43]  169
    x[9]      packing[46]  110
    x[9]      packing[47]  2
    x[9]      packing[48]  11
    x[9]      packing[49]  74
    x[9]      R55       1
    x[10]     OBJ       109
    x[10]     packing[0]  46
    x[10]     packing[3]  19
    x[10]     packing[4]  81
    x[10]     packing[5]  157
    x[10]     packing[7]  66
    x[10]     packing[9]  59
    x[10]     packing[11]  50
    x[10]     packing[12]  87
    x[10]     packing[13]  49
    x[10]     packing[14]  69
    x[10]     packing[16]  164
    x[10]     packing[17]  123
    x[10]     packing[19]  97
    x[10]     packing[23]  139
    x[10]     packing[24]  17
    x[10]     packing[25]  187
    x[10]     packing[27]  65
    x[10]     packing[28]  39
    x[10]     packing[30]  70
    x[10]     packing[32]  34
    x[10]     packing[34]  65
    x[10]     packing[35]  31
    x[10]     packing[36]  121
    x[10]     packing[37]  175
    x[10]     packing[38]  73
    x[10]     packing[39]  13
    x[10]     packing[40]  156
    x[10]     packing[41]  97
    x[10]     packing[42]  188
    x[10]     packing[43]  30
    x[10]     packing[44]  180
    x[10]     packing[45]  186
    x[10]     packing[46]  77
    x[10]     R55       1
    x[11]     OBJ       128
    x[11]     packing[1]  177
    x[11]     packing[3]  77
    x[11]     packing[4]  101
    x[11]     packing[5]  2
    x[11]     packing[6]  70
    x[11]     packing[10]  121
    x[11]     packing[13]  99
    x[11]     packing[16]  32
    x[11]     packing[18]  154
    x[11]     packing[19]  135
    x[11]     packing[20]  188
    x[11]     packing[21]  70
    x[11]     packing[22]  80
    x[11]     packing[23]  112
    x[11]     packing[26]  55
    x[11]     packing[30]  82
    x[11]     packing[31]  173
    x[11]     packing[34]  104
    x[11]     packing[36]  154
    x[11]     packing[37]  14
    x[11]     packing[38]  153
    x[11]     packing[39]  164
    x[11]     packing[40]  173
    x[11]     packing[41]  131
    x[11]     packing[42]  99
    x[11]     packing[43]  112
    x[11]     packing[44]  135
    x[11]     packing[45]  7
    x[11]     packing[46]  93
    x[11]     packing[47]  102
    x[11]     packing[48]  89
    x[11]     packing[49]  34
    x[12]     OBJ       32
    x[12]     packing[1]  28
    x[12]     packing[2]  139
    x[12]     packing[5]  133
    x[12]     packing[6]  105
    x[12]     packing[7]  77
    x[12]     packing[9]  12
    x[12]     packing[10]  22
    x[12]     packing[11]  20
    x[12]     packing[12]  41
    x[12]     packing[13]  77
    x[12]     packing[15]  54
    x[12]     packing[16]  44
    x[12]     packing[18]  120
    x[12]     packing[19]  2
    x[12]     packing[20]  134
    x[12]     packing[21]  62
    x[12]     packing[22]  19
    x[12]     packing[23]  11
    x[12]     packing[24]  184
    x[12]     packing[25]  179
    x[12]     packing[26]  156
    x[12]     packing[27]  148
    x[12]     packing[28]  70
    x[12]     packing[29]  147
    x[12]     packing[30]  146
    x[12]     packing[31]  70
    x[12]     packing[32]  107
    x[12]     packing[33]  48
    x[12]     packing[35]  67
    x[12]     packing[36]  199
    x[12]     packing[37]  166
    x[12]     packing[38]  25
    x[12]     packing[39]  113
    x[12]     packing[41]  69
    x[12]     packing[42]  154
    x[12]     packing[43]  41
    x[12]     packing[44]  18
    x[12]     packing[45]  99
    x[12]     packing[47]  27
    x[12]     packing[48]  169
    x[12]     packing[49]  195
    x[13]     OBJ       56
    x[13]     packing[0]  102
    x[13]     packing[1]  183
    x[13]     packing[2]  70
    x[13]     packing[3]  105
    x[13]     packing[4]  109
    x[13]     packing[5]  171
    x[13]     packing[7]  185
    x[13]     packing[9]  153
    x[13]     packing[11]  90
    x[13]     packing[12]  163
    x[13]     packing[13]  104
    x[13]     packing[14]  73
    x[13]     packing[15]  74
    x[13]     packing[16]  108
    x[13]     packing[17]  149
    x[13]     packing[19]  7
    x[13]     packing[20]  171
    x[13]     packing[22]  36
    x[13]     packing[23]  33
    x[13]     packing[26]  68
    x[13]     packing[28]  158
    x[13]     packing[29]  39
    x[13]     packing[30]  69
    x[13]     packing[31]  46
    x[13]     packing[32]  33
    x[13]     packing[33]  183
    x[13]     packing[34]  188
    x[13]     packing[35]  147
    x[13]     packing[36]  42
    x[13]     packing[37]  102
    x[13]     packing[39]  175
    x[13]     packing[40]  112
    x[13]     packing[41]  119
    x[13]     packing[43]  3
    x[13]     packing[44]  133
    x[13]     packing[45]  141
    x[13]     packing[46]  118
    x[13]     packing[47]  93
    x[14]     OBJ       58
    x[14]     packing[5]  140
    x[14]     packing[6]  128
    x[14]     packing[7]  59
    x[14]     packing[9]  93
    x[14]     packing[10]  162
    x[14]     packing[11]  5
    x[14]     packing[12]  148
    x[14]     packing[14]  55
    x[14]     packing[15]  134
    x[14]     packing[16]  125
    x[14]     packing[17]  57
    x[14]     packing[19]  111
    x[14]     packing[20]  148
    x[14]     packing[21]  136
    x[14]     packing[22]  116
    x[14]     packing[23]  84
    x[14]     packing[24]  80
    x[14]     packing[25]  109
    x[14]     packing[26]  135
    x[14]     packing[27]  3
    x[14]     packing[29]  90
    x[14]     packing[30]  86
    x[14]     packing[33]  24
    x[14]     packing[34]  160
    x[14]     packing[35]  160
    x[14]     packing[36]  71
    x[14]     packing[37]  47
    x[14]     packing[38]  151
    x[14]     packing[40]  49
    x[14]     packing[41]  8
    x[14]     packing[42]  157
    x[14]     packing[43]  67
    x[14]     packing[44]  39
    x[14]     packing[45]  10
    x[14]     packing[46]  117
    x[14]     packing[48]  108
    x[15]     OBJ       136
    x[15]     packing[0]  152
    x[15]     packing[1]  97
    x[15]     packing[2]  22
    x[15]     packing[3]  151
    x[15]     packing[5]  23
    x[15]     packing[6]  149
    x[15]     packing[7]  193
    x[15]     packing[8]  157
    x[15]     packing[9]  65
    x[15]     packing[10]  180
    x[15]     packing[11]  155
    x[15]     packing[12]  172
    x[15]     packing[13]  9
    x[15]     packing[15]  120
    x[15]     packing[16]  15
    x[15]     packing[17]  189
    x[15]     packing[19]  112
    x[15]     packing[22]  56
    x[15]     packing[23]  129
    x[15]     packing[25]  115
    x[15]     packing[26]  90
    x[15]     packing[30]  83
    x[15]     packing[31]  118
    x[15]     packing[32]  120
    x[15]     packing[33]  179
    x[15]     packing[34]  64
    x[15]     packing[36]  103
    x[15]     packing[37]  39
    x[15]     packing[38]  131
    x[15]     packing[39]  96
    x[15]     packing[40]  198
    x[15]     packing[41]  47
    x[15]     packing[42]  43
    x[15]     packing[43]  164
    x[15]     packing[44]  64
    x[15]     packing[45]  139
    x[15]     packing[46]  152
    x[15]     packing[47]  197
    x[15]     packing[49]  19
    x[15]     R55       1
    x[16]     OBJ       21
    x[16]     packing[0]  17
    x[16]     packing[1]  72
    x[16]     packing[3]  135
    x[16]     packing[4]  170
    x[16]     packing[6]  144
    x[16]     packing[7]  125
    x[16]     packing[8]  27
    x[16]     packing[10]  68
    x[16]     packing[12]  161
    x[16]     packing[13]  1
    x[16]     packing[14]  128
    x[16]     packing[15]  90
    x[16]     packing[16]  188
    x[16]     packing[17]  37
    x[16]     packing[18]  66
    x[16]     packing[19]  130
    x[16]     packing[21]  33
    x[16]     packing[22]  17
    x[16]     packing[24]  60
    x[16]     packing[25]  113
    x[16]     packing[28]  161
    x[16]     packing[29]  183
    x[16]     packing[30]  27
    x[16]     packing[32]  46
    x[16]     packing[33]  82
    x[16]     packing[37]  163
    x[16]     packing[38]  118
    x[16]     packing[39]  160
    x[16]     packing[40]  183
    x[16]     packing[41]  174
    x[16]     packing[42]  130
    x[16]     packing[43]  185
    x[16]     packing[44]  63
    x[16]     packing[47]  160
    x[16]     packing[48]  47
    x[16]     packing[49]  155
    x[17]     OBJ       169
    x[17]     packing[0]  91
    x[17]     packing[1]  45
    x[17]     packing[2]  19
    x[17]     packing[3]  48
    x[17]     packing[4]  186
    x[17]     packing[6]  76
    x[17]     packing[7]  150
    x[17]     packing[8]  62
    x[17]     packing[10]  182
    x[17]     packing[11]  55
    x[17]     packing[12]  138
    x[17]     packing[13]  164
    x[17]     packing[16]  156
    x[17]     packing[18]  25
    x[17]     packing[19]  30
    x[17]     packing[20]  84
    x[17]     packing[21]  39
    x[17]     packing[22]  185
    x[17]     packing[23]  99
    x[17]     packing[24]  138
    x[17]     packing[25]  11
    x[17]     packing[26]  9
    x[17]     packing[27]  129
    x[17]     packing[28]  81
    x[17]     packing[30]  20
    x[17]     packing[32]  102
    x[17]     packing[33]  78
    x[17]     packing[34]  127
    x[17]     packing[36]  96
    x[17]     packing[37]  32
    x[17]     packing[38]  57
    x[17]     packing[39]  148
    x[17]     packing[40]  184
    x[17]     packing[41]  161
    x[17]     packing[43]  152
    x[17]     packing[44]  107
    x[17]     packing[46]  182
    x[17]     packing[47]  128
    x[17]     packing[49]  166
    x[18]     OBJ       136
    x[18]     packing[0]  5
    x[18]     packing[3]  23
    x[18]     packing[4]  168
    x[18]     packing[6]  90
    x[18]     packing[7]  30
    x[18]     packing[8]  133
    x[18]     packing[10]  149
    x[18]     packing[11]  121
    x[18]     packing[12]  102
    x[18]     packing[14]  139
    x[18]     packing[15]  64
    x[18]     packing[16]  151
    x[18]     packing[17]  157
    x[18]     packing[18]  136
    x[18]     packing[19]  39
    x[18]     packing[20]  73
    x[18]     packing[21]  127
    x[18]     packing[22]  164
    x[18]     packing[23]  46
    x[18]     packing[26]  133
    x[18]     packing[27]  65
    x[18]     packing[30]  109
    x[18]     packing[31]  27
    x[18]     packing[32]  75
    x[18]     packing[33]  94
    x[18]     packing[34]  40
    x[18]     packing[36]  27
    x[18]     packing[37]  92
    x[18]     packing[38]  92
    x[18]     packing[40]  49
    x[18]     packing[41]  57
    x[18]     packing[42]  58
    x[18]     packing[43]  111
    x[18]     packing[44]  125
    x[18]     packing[45]  25
    x[18]     packing[46]  135
    x[18]     packing[47]  49
    x[19]     OBJ       118
    x[19]     packing[0]  189
    x[19]     packing[1]  129
    x[19]     packing[2]  105
    x[19]     packing[4]  139
    x[19]     packing[5]  173
    x[19]     packing[6]  158
    x[19]     packing[7]  41
    x[19]     packing[8]  128
    x[19]     packing[9]  81
    x[19]     packing[10]  135
    x[19]     packing[13]  54
    x[19]     packing[15]  108
    x[19]     packing[16]  153
    x[19]     packing[17]  154
    x[19]     packing[19]  180
    x[19]     packing[20]  96
    x[19]     packing[21]  92
    x[19]     packing[22]  39
    x[19]     packing[24]  188
    x[19]     packing[25]  34
    x[19]     packing[26]  164
    x[19]     packing[27]  192
    x[19]     packing[28]  111
    x[19]     packing[29]  20
    x[19]     packing[30]  42
    x[19]     packing[31]  188
    x[19]     packing[32]  192
    x[19]     packing[35]  160
    x[19]     packing[36]  127
    x[19]     packing[37]  137
    x[19]     packing[38]  123
    x[19]     packing[41]  80
    x[19]     packing[42]  137
    x[19]     packing[43]  145
    x[19]     packing[44]  52
    x[19]     packing[45]  198
    x[19]     packing[47]  10
    x[19]     packing[48]  131
    x[19]     packing[49]  99
    x[19]     R55       1
    x[20]     OBJ       148
    x[20]     packing[1]  12
    x[20]     packing[3]  120
    x[20]     packing[4]  88
    x[20]     packing[5]  67
    x[20]     packing[6]  189
    x[20]     packing[9]  119
    x[20]     packing[10]  196
    x[20]     packing[12]  176
    x[20]     packing[13]  10
    x[20]     packing[14]  86
    x[20]     packing[15]  84
    x[20]     packing[16]  19
    x[20]     packing[17]  5
    x[20]     packing[18]  154
    x[20]     packing[19]  81
    x[20]     packing[20]  189
    x[20]     packing[22]  18
    x[20]     packing[23]  59
    x[20]     packing[24]  112
    x[20]     packing[26]  47
    x[20]     packing[27]  135
    x[20]     packing[29]  106
    x[20]     packing[30]  27
    x[20]     packing[31]  84
    x[20]     packing[32]  4
    x[20]     packing[33]  176
    x[20]     packing[34]  125
    x[20]     packing[35]  144
    x[20]     packing[36]  153
    x[20]     packing[37]  57
    x[20]     packing[38]  83
    x[20]     packing[39]  148
    x[20]     packing[40]  122
    x[20]     packing[41]  11
    x[20]     packing[42]  166
    x[20]     packing[43]  146
    x[20]     packing[45]  189
    x[20]     packing[46]  38
    x[20]     packing[47]  197
    x[20]     packing[48]  53
    MARKER    'MARKER'                 'INTEND'
RHS
    RHS1      packing[0]  576
    RHS1      packing[1]  640
    RHS1      packing[2]  452
    RHS1      packing[3]  613
    RHS1      packing[4]  758
    RHS1      packing[5]  731
    RHS1      packing[6]  875
    RHS1      packing[7]  713
    RHS1      packing[8]  581
    RHS1      packing[9]  535
    RHS1      packing[10]  828
    RHS1      packing[11]  398
    RHS1      packing[12]  779
    RHS1      packing[13]  586
    RHS1      packing[14]  557
    RHS1      packing[15]  919
    RHS1      packing[16]  892
    RHS1      packing[17]  667
    RHS1      packing[18]  472
    RHS1      packing[19]  817
    RHS1      packing[20]  911
    RHS1      packing[21]  496
    RHS1      packing[22]  643
    RHS1      packing[23]  691
    RHS1      packing[24]  797
    RHS1      packing[25]  708
    RHS1      packing[26]  874
    RHS1      packing[27]  623
    RHS1      packing[28]  546
    RHS1      packing[29]  553
    RHS1      packing[30]  837
    RHS1      packing[31]  951
    RHS1      packing[32]  787
    RHS1      packing[33]  712
    RHS1      packing[34]  969
    RHS1      packing[35]  730
    RHS1      packing[36]  900
    RHS1      packing[37]  698
    RHS1      packing[38]  882
    RHS1      packing[39]  971
    RHS1      packing[40]  1133
    RHS1      packing[41]  972
    RHS1      packing[42]  643
    RHS1      packing[43]  957
    RHS1      packing[44]  690
    RHS1      packing[45]  816
    RHS1      packing[46]  773
    RHS1      packing[47]  741
    RHS1      packing[48]  640
    RHS1      packing[49]  853
    RHS1      R55       5
BOUNDS
 BV BND1      x[1]    
 BV BND1      x[2]    
 BV BND1      x[3]    
 BV BND1      x[4]    
 BV BND1      x[5]    
 BV BND1      x[6]    
 BV BND1      x[7]    
 BV BND1      x[8]    
 BV BND1      x[9]    
 BV BND1      x[10]   
 BV BND1      x[11]   
 BV BND1      x[12]   
 BV BND1      x[13]   
 BV BND1      x[14]   
 BV BND1      x[15]   
 BV BND1      x[16]   
 BV BND1      x[17]   
 BV BND1      x[18]   
 BV BND1      x[19]   
 BV BND1      x[20]   
ENDATA
